<?xml version = "1.0" standalone="yes"?>
<!-- This file has been generated by DOcplex version 2.23.222  -->
<CPLEXSolution version="1.0">
 <header
   problemName="CVRP"
   objectiveValue="11691.3"
  />
 <variables>
  <variable name="x_0_1" index="0" value="1.00000"/>
  <variable name="x_0_2" index="1" value="1.00000"/>
  <variable name="x_0_3" index="2" value="1.00000"/>
  <variable name="x_0_4" index="3" value="1.00000"/>
  <variable name="x_0_5" index="4" value="1.00000"/>
  <variable name="x_0_9" index="8" value="1.00000"/>
  <variable name="x_0_13" index="12" value="1.00000"/>
  <variable name="x_0_16" index="15" value="1.00000"/>
  <variable name="x_0_17" index="16" value="1.00000"/>
  <variable name="x_0_20" index="19" value="1.00000"/>
  <variable name="x_0_22" index="21" value="1.00000"/>
  <variable name="x_1_7" index="28" value="1.00000"/>
  <variable name="x_2_10" index="53" value="1.00000"/>
  <variable name="x_3_8" index="73" value="1.00000"/>
  <variable name="x_4_18" index="105" value="1.00000"/>
  <variable name="x_5_11" index="120" value="1.00000"/>
  <variable name="x_6_0" index="132" value="1.00000"/>
  <variable name="x_7_0" index="154" value="1.00000"/>
  <variable name="x_8_0" index="176" value="1.00000"/>
  <variable name="x_9_0" index="198" value="1.00000"/>
  <variable name="x_10_6" index="226" value="1.00000"/>
  <variable name="x_11_19" index="260" value="1.00000"/>
  <variable name="x_12_0" index="264" value="1.00000"/>
  <variable name="x_13_21" index="306" value="1.00000"/>
  <variable name="x_14_12" index="320" value="1.00000"/>
  <variable name="x_15_0" index="330" value="1.00000"/>
  <variable name="x_16_0" index="352" value="1.00000"/>
  <variable name="x_17_14" index="388" value="1.00000"/>
  <variable name="x_18_15" index="411" value="1.00000"/>
  <variable name="x_19_0" index="418" value="1.00000"/>
  <variable name="x_20_0" index="440" value="1.00000"/>
  <variable name="x_21_0" index="462" value="1.00000"/>
  <variable name="x_22_0" index="484" value="1.00000"/>
  <variable name="u_1" index="506" value="29.00000"/>
  <variable name="u_2" index="507" value="47.00000"/>
  <variable name="u_3" index="508" value="12.00000"/>
  <variable name="u_4" index="509" value="13.00000"/>
  <variable name="u_5" index="510" value="38.00000"/>
  <variable name="u_6" index="511" value="63.00000"/>
  <variable name="u_7" index="512" value="63.00000"/>
  <variable name="u_8" index="513" value="59.00000"/>
  <variable name="u_9" index="514" value="57.00000"/>
  <variable name="u_10" index="515" value="61.00000"/>
  <variable name="u_11" index="516" value="44.00000"/>
  <variable name="u_12" index="517" value="63.00000"/>
  <variable name="u_13" index="518" value="15.00000"/>
  <variable name="u_14" index="519" value="43.00000"/>
  <variable name="u_15" index="520" value="63.00000"/>
  <variable name="u_16" index="521" value="63.00000"/>
  <variable name="u_17" index="522" value="31.00000"/>
  <variable name="u_18" index="523" value="46.00000"/>
  <variable name="u_19" index="524" value="63.00000"/>
  <variable name="u_20" index="525" value="63.00000"/>
  <variable name="u_21" index="526" value="63.00000"/>
  <variable name="u_22" index="527" value="63.00000"/>
 </variables>
</CPLEXSolution>
